(set-logic QF_S)
(declare-fun var0 () Int)
(declare-fun var1 () Int)
(declare-fun var2 () String)
(declare-fun var3 () Int)
(declare-fun var4 () Int)
(declare-fun var5 () String)
(declare-fun var6 () String)
(declare-fun var7 () String)
(assert (<= var0 var1))
(assert (str.contains (str.substr var2 var3 var4) (str.replace var5 var6 var7)))
(assert (str.contains var5 var6))
(assert (< (str.indexof "8H+.3JL+T*" var7 var1) (str.indexof var2 var2)))
(check-sat)